DATASET = "thpack8";
INSTANCE = "005";

WIDTH = 2000;
HEIGHT = 900;
LENGTH = 3000;

NO_OF_SHAPES = 6;
size = [|
  400,375,200 |
  300,250,225 |
  500,500,100 |
  800,250,250 |
  1500,200,200 |
  900,200,200 |
|];

verticality = [|
  0,0,1 |
  0,0,1 |
  0,0,1 |
  0,0,1 |
  0,0,1 |
  0,0,1 |
|];

box_count = [
  35,
  15,
  25,
  10,
  20,
  15,
];
